BAYES
196
2 2 2 2 2 2 2 2 2 2 2 2 2 2 2 2 2 2 2 2 2 2 2 2 2 2 2 2 2 2 2 2 2 2 2 2 2 2 2 2 2 2 2 2 2 2 2 2 2 2 2 2 2 2 2 2 2 2 2 2 2 2 2 2 2 2 2 2 2 2 2 2 2 2 2 2 2 2 2 2 2 2 2 2 2 2 2 2 2 2 2 2 2 2 2 2 2 2 2 2 2 2 2 2 2 2 2 2 2 2 2 2 2 2 2 2 2 2 2 2 2 2 2 2 2 2 2 2 2 2 2 2 2 2 2 2 2 2 2 2 2 2 2 2 2 2 2 2 2 2 2 2 2 2 2 2 2 2 2 2 2 2 2 2 2 2 2 2 2 2 2 2 2 2 2 2 2 2 2 2 2 2 2 2 2 2 2 2 2 2 2 2 2 2 2 2
196
3 14 1 0
3 15 2 1
3 16 3 2
3 17 4 3
3 18 5 4
3 19 6 5
3 20 7 6
3 21 8 7
3 22 9 8
3 23 10 9
3 24 11 10
3 25 12 11
3 26 13 12
2 27 13
3 28 15 14
3 29 16 15
3 30 17 16
3 31 18 17
3 32 19 18
3 33 20 19
3 34 21 20
3 35 22 21
3 36 23 22
3 37 24 23
3 38 25 24
3 39 26 25
3 40 27 26
2 41 27
3 42 29 28
3 43 30 29
3 44 31 30
3 45 32 31
3 46 33 32
3 47 34 33
3 48 35 34
3 49 36 35
3 50 37 36
3 51 38 37
3 52 39 38
3 53 40 39
3 54 41 40
2 55 41
3 56 43 42
3 57 44 43
3 58 45 44
3 59 46 45
3 60 47 46
3 61 48 47
3 62 49 48
3 63 50 49
3 64 51 50
3 65 52 51
3 66 53 52
3 67 54 53
3 68 55 54
2 69 55
3 70 57 56
3 71 58 57
3 72 59 58
3 73 60 59
3 74 61 60
3 75 62 61
3 76 63 62
3 77 64 63
3 78 65 64
3 79 66 65
3 80 67 66
3 81 68 67
3 82 69 68
2 83 69
3 84 71 70
3 85 72 71
3 86 73 72
3 87 74 73
3 88 75 74
3 89 76 75
3 90 77 76
3 91 78 77
3 92 79 78
3 93 80 79
3 94 81 80
3 95 82 81
3 96 83 82
2 97 83
3 98 85 84
3 99 86 85
3 100 87 86
3 101 88 87
3 102 89 88
3 103 90 89
3 104 91 90
3 105 92 91
3 106 93 92
3 107 94 93
3 108 95 94
3 109 96 95
3 110 97 96
2 111 97
3 112 99 98
3 113 100 99
3 114 101 100
3 115 102 101
3 116 103 102
3 117 104 103
3 118 105 104
3 119 106 105
3 120 107 106
3 121 108 107
3 122 109 108
3 123 110 109
3 124 111 110
2 125 111
3 126 113 112
3 127 114 113
3 128 115 114
3 129 116 115
3 130 117 116
3 131 118 117
3 132 119 118
3 133 120 119
3 134 121 120
3 135 122 121
3 136 123 122
3 137 124 123
3 138 125 124
2 139 125
3 140 127 126
3 141 128 127
3 142 129 128
3 143 130 129
3 144 131 130
3 145 132 131
3 146 133 132
3 147 134 133
3 148 135 134
3 149 136 135
3 150 137 136
3 151 138 137
3 152 139 138
2 153 139
3 154 141 140
3 155 142 141
3 156 143 142
3 157 144 143
3 158 145 144
3 159 146 145
3 160 147 146
3 161 148 147
3 162 149 148
3 163 150 149
3 164 151 150
3 165 152 151
3 166 153 152
2 167 153
3 168 155 154
3 169 156 155
3 170 157 156
3 171 158 157
3 172 159 158
3 173 160 159
3 174 161 160
3 175 162 161
3 176 163 162
3 177 164 163
3 178 165 164
3 179 166 165
3 180 167 166
2 181 167
3 182 169 168
3 183 170 169
3 184 171 170
3 185 172 171
3 186 173 172
3 187 174 173
3 188 175 174
3 189 176 175
3 190 177 176
3 191 178 177
3 192 179 178
3 193 180 179
3 194 181 180
2 195 181
2 183 182
2 184 183
2 185 184
2 186 185
2 187 186
2 188 187
2 189 188
2 190 189
2 191 190
2 192 191
2 193 192
2 194 193
2 195 194
1  195
8
0 1 1 0 0 1 0 1
8
0 1 1 0 1 0 0 1
8
0 1 0 1 1 0 1 0
8
0 1 1 0 1 0 1 0
8
1 0 1 0 0 1 0 1
8
0 1 0 1 1 0 1 0
8
0.012999883659432408 0.9870001163405676 0.28191522122970114 0.7180847787702989 0.9045437505502728 0.09545624944972722 0.7656600624351243 0.23433993756487567
8
1 0 0 1 0 1 1 0
8
1 0 0 1 0 1 1 0
8
1 0 0 1 1 0 0 1
8
1 0 1 0 0 1 1 0
8
1 0 1 0 1 0 1 0
8
1 0 1 0 0 1 0 1
4
0.18209871231462746 0.8179012876853726 0.5195884325640109 0.48041156743598906
8
0 1 1 0 0 1 1 0
8
1 0 1 0 0 1 1 0
8
1 0 0 1 0 1 0 1
8
1 0 1 0 1 0 0 1
8
0 1 1 0 0 1 0 1
8
1 0 0 1 0 1 0 1
8
1 0 1 0 0 1 0 1
8
1 0 1 0 1 0 1 0
8
0.26332270124438656 0.7366772987556136 0.9290063623395877 0.07099363766041236 0.3152423418143027 0.6847576581856972 0.6666016956222751 0.3333983043777249
8
0 1 0 1 0 1 1 0
8
0 1 1 0 1 0 0 1
8
0.6898470239525701 0.3101529760474298 0.44942758501638175 0.5505724149836182 0.7160419745767357 0.2839580254232643 0.5983445445717552 0.4016554554282447
8
0 1 0 1 1 0 0 1
4
0 1 1 0
8
0.4248520909567065 0.5751479090432935 0.7778170719359001 0.22218292806409984 0.5423321233438926 0.4576678766561075 0.057026074754865735 0.9429739252451341
8
0 1 0 1 1 0 1 0
8
0 1 0 1 0 1 0 1
8
0.49192820113640484 0.5080717988635951 0.7060923240328195 0.29390767596718054 0.25371331787679635 0.7462866821232037 0.31002716718160966 0.6899728328183904
8
1 0 0 1 1 0 1 0
8
0 1 1 0 0 1 1 0
8
0 1 0 1 1 0 1 0
8
0 1 1 0 1 0 0 1
8
0.9967213984489806 0.003278601551019416 0.7511237813752741 0.24887621862472584 0.613929629429128 0.38607037057087196 0.5525454841735249 0.447454515826475
8
0 1 1 0 0 1 0 1
8
1 0 0 1 0 1 0 1
8
0 1 1 0 0 1 0 1
8
1 0 1 0 0 1 0 1
4
0 1 1 0
8
0 1 1 0 1 0 1 0
8
1 0 0 1 0 1 1 0
8
0.11672209123464929 0.8832779087653507 0.4962218315317627 0.5037781684682373 0.4257386745769458 0.5742613254230541 0.3680890082598227 0.6319109917401772
8
1 0 0 1 1 0 0 1
8
0 1 1 0 0 1 0 1
8
0.603550155573423 0.396449844426577 0.5965964882821139 0.40340351171788613 0.3578161430916911 0.6421838569083089 0.573817906442501 0.4261820935574989
8
1 0 1 0 1 0 0 1
8
0 1 1 0 1 0 0 1
8
0 1 1 0 0 1 0 1
8
1 0 0 1 1 0 1 0
8
0 1 0 1 0 1 1 0
8
0 1 1 0 0 1 1 0
8
1 0 1 0 0 1 1 0
4
0.85883462844394 0.14116537155606002 0.640459564536976 0.35954043546302406
8
1 0 0 1 0 1 1 0
8
1 0 0 1 1 0 1 0
8
0 1 1 0 1 0 0 1
8
1 0 1 0 0 1 1 0
8
1 0 1 0 0 1 1 0
8
0 1 1 0 0 1 1 0
8
1 0 1 0 0 1 1 0
8
1 0 1 0 1 0 1 0
8
0.8210132991359421 0.1789867008640579 0.55879672090535 0.4412032790946499 0.6036203813124804 0.3963796186875196 0.12871448243111208 0.871285517568888
8
0 1 1 0 0 1 0 1
8
1 0 0 1 1 0 1 0
8
1 0 1 0 1 0 1 0
8
1 0 0 1 0 1 0 1
4
0.5210509246966684 0.47894907530333164 0.38194695378941307 0.6180530462105869
8
0 1 0 1 0 1 0 1
8
0 1 0 1 1 0 1 0
8
1 0 0 1 0 1 1 0
8
1 0 0 1 0 1 0 1
8
0 1 1 0 0 1 1 0
8
1 0 1 0 0 1 1 0
8
1 0 1 0 0 1 0 1
8
0 1 1 0 1 0 0 1
8
1 0 1 0 1 0 0 1
8
0 1 1 0 1 0 0 1
8
0 1 1 0 0 1 1 0
8
0 1 0 1 0 1 1 0
8
0 1 0 1 0 1 1 0
4
1 0 0 1
8
1 0 1 0 0 1 1 0
8
1 0 0 1 0 1 0 1
8
1 0 1 0 0 1 0 1
8
1 0 0 1 1 0 1 0
8
0 1 1 0 0 1 0 1
8
0 1 0 1 1 0 0 1
8
1 0 0 1 0 1 1 0
8
1 0 1 0 0 1 0 1
8
1 0 1 0 1 0 0 1
8
0 1 1 0 1 0 0 1
8
0 1 1 0 1 0 0 1
8
0 1 0 1 1 0 1 0
8
0 1 1 0 0 1 1 0
4
0 1 0 1
8
0 1 1 0 1 0 0 1
8
1 0 0 1 0 1 1 0
8
0 1 1 0 1 0 0 1
8
1 0 0 1 0 1 0 1
8
0.15593293679177958 0.8440670632082204 0.7184940291090659 0.28150597089093404 0.47084589568326624 0.5291541043167337 0.7176303548566354 0.28236964514336466
8
1 0 0 1 0 1 0 1
8
0.2883328449007376 0.7116671550992626 0.9101816087540835 0.0898183912459166 0.40511104432110656 0.5948889556788935 0.5352874373779796 0.4647125626220204
8
1 0 1 0 1 0 1 0
8
1 0 1 0 0 1 0 1
8
1 0 1 0 0 1 1 0
8
1 0 0 1 0 1 0 1
8
1 0 0 1 0 1 1 0
8
1 0 0 1 0 1 1 0
4
1 0 1 0
8
0 1 1 0 1 0 0 1
8
0 1 1 0 1 0 1 0
8
1 0 0 1 1 0 1 0
8
0 1 1 0 1 0 0 1
8
1 0 1 0 1 0 1 0
8
0 1 1 0 1 0 1 0
8
0 1 0 1 0 1 0 1
8
0 1 0 1 0 1 0 1
8
0 1 1 0 1 0 0 1
8
0 1 0 1 0 1 0 1
8
1 0 0 1 1 0 0 1
8
1 0 1 0 0 1 0 1
8
1 0 1 0 0 1 1 0
4
1 0 1 0
8
0 1 0 1 1 0 1 0
8
1 0 0 1 1 0 1 0
8
0 1 0 1 0 1 0 1
8
0 1 1 0 0 1 1 0
8
0 1 0 1 1 0 1 0
8
0 1 0 1 0 1 1 0
8
1 0 0 1 1 0 0 1
8
0.4067846281519594 0.5932153718480406 0.8055041717910697 0.19449582820893033 0.4084097143710806 0.5915902856289195 0.43588967195946804 0.564110328040532
8
1 0 0 1 0 1 0 1
8
0 1 1 0 1 0 0 1
8
1 0 1 0 0 1 1 0
8
0 1 0 1 0 1 1 0
8
0.1639759410700102 0.8360240589299898 0.8826026898528008 0.11739731014719927 0.5713802893095642 0.4286197106904358 0.4664850546982208 0.5335149453017791
4
1 0 1 0
8
0 1 1 0 1 0 0 1
8
0 1 0 1 1 0 0 1
8
0 1 1 0 0 1 0 1
8
1 0 1 0 1 0 1 0
8
1 0 1 0 1 0 0 1
8
0 1 0 1 1 0 0 1
8
0 1 0 1 1 0 1 0
8
1 0 1 0 0 1 1 0
8
1 0 1 0 0 1 1 0
8
1 0 1 0 0 1 1 0
8
1 0 0 1 0 1 1 0
8
1 0 1 0 0 1 1 0
8
1 0 0 1 1 0 0 1
4
0 1 0 1
8
0.6853219866641367 0.3146780133358633 0.6370733270979384 0.3629266729020616 0.6480119368221803 0.35198806317781983 0.4657674350068345 0.5342325649931654
8
0 1 0 1 0 1 1 0
8
1 0 0 1 1 0 0 1
8
0 1 0 1 0 1 1 0
8
0 1 0 1 0 1 1 0
8
1 0 0 1 0 1 0 1
8
0 1 1 0 0 1 1 0
8
1 0 0 1 0 1 1 0
8
0 1 1 0 1 0 0 1
8
0 1 1 0 0 1 1 0
8
0 1 0 1 1 0 0 1
8
0 1 0 1 0 1 0 1
8
1 0 0 1 0 1 0 1
4
0 1 1 0
8
0 1 1 0 0 1 0 1
8
1 0 0 1 0 1 1 0
8
0 1 0 1 1 0 0 1
8
1 0 1 0 1 0 1 0
8
1 0 0 1 0 1 0 1
8
1 0 1 0 1 0 0 1
8
0 1 1 0 0 1 1 0
8
1 0 0 1 0 1 1 0
8
0 1 0 1 1 0 0 1
8
0.45353482378281224 0.5464651762171877 0.4443484013298398 0.5556515986701602 0.11699861158869973 0.8830013884113003 0.4074447864656189 0.5925552135343811
8
0 1 1 0 0 1 0 1
8
0 1 0 1 1 0 0 1
8
1 0 1 0 0 1 1 0
4
0 1 1 0
4
0.441544540267578 0.5584554597324219 0.21704489644398967 0.7829551035560103
4
1 0 0 1
4
0.5876549248485603 0.41234507515143964 0.16331682929939081 0.8366831707006092
4
1 0 1 0
4
0 1 1 0
4
1 0 1 0
4
0 1 1 0
4
1 0 0 1
4
1 0 1 0
4
0 1 0 1
4
0 1 0 1
4
1 0 0 1
4
1 0 1 0
2
0 1
